0 456
3 452
4 426
5 424
7 398
12 390
14 344
15 336
19 332
24 326
26 312
28 286
40 282
53 278
60 276
65 272
70 252
73 236
128 216
162 214
211 210
234 206
256 204
266 200
297 194
312 188
622 186
650 184
652 176
718 170
719 160
1679 156
2109 152
2246 148
3335 144
3544 142
